data/lp_files/pEFS/123_6.lp
\ Model foo
\ LP format - for model browsing. Use MPS format to capture full model detail.
Minimize
  z
Subject To
 allocateEach[1]: x[1,1] + x[2,1] + x[3,1] + x[4,1] + x[5,1] + x[6,1]
   + x[7,1] = 1
 allocateEach[2]: x[1,2] + x[2,2] + x[3,2] + x[4,2] + x[5,2] + x[6,2]
   + x[7,2] = 1
 allocateEach[3]: x[1,3] + x[2,3] + x[3,3] + x[4,3] + x[5,3] + x[6,3]
   + x[7,3] = 1
 allocateAllCash: cashProportion[1] + cashProportion[2] + cashProportion[3]
   + cashProportion[4] + cashProportion[5] + cashProportion[6]
   + cashProportion[7] = 1
 findWorstP[1,2]: z + 0.2181381905437095 cashProportion[1]
   - 0.2181381905437095 cashProportion[2] + 0.060806020614059 x[1,1]
   + 0.3238806784097726 x[1,2] + 0.397175110432459 x[1,3]
   - 0.060806020614059 x[2,1] - 0.3238806784097726 x[2,2]
   - 0.397175110432459 x[2,3] >= 0
 findWorstP[1,3]: z + 0.2181381905437095 cashProportion[1]
   - 0.2181381905437095 cashProportion[3] + 0.060806020614059 x[1,1]
   + 0.3238806784097726 x[1,2] + 0.397175110432459 x[1,3]
   - 0.060806020614059 x[3,1] - 0.3238806784097726 x[3,2]
   - 0.397175110432459 x[3,3] >= 0
 findWorstP[1,4]: z + 0.2181381905437095 cashProportion[1]
   - 0.2181381905437095 cashProportion[4] + 0.060806020614059 x[1,1]
   + 0.3238806784097726 x[1,2] + 0.397175110432459 x[1,3]
   - 0.060806020614059 x[4,1] - 0.3238806784097726 x[4,2]
   - 0.397175110432459 x[4,3] >= 0
 findWorstP[1,5]: z + 0.2181381905437095 cashProportion[1]
   - 0.2181381905437095 cashProportion[5] + 0.060806020614059 x[1,1]
   + 0.3238806784097726 x[1,2] + 0.397175110432459 x[1,3]
   - 0.060806020614059 x[5,1] - 0.3238806784097726 x[5,2]
   - 0.397175110432459 x[5,3] >= 0
 findWorstP[1,6]: z + 0.2181381905437095 cashProportion[1]
   - 0.2181381905437095 cashProportion[6] + 0.060806020614059 x[1,1]
   + 0.3238806784097726 x[1,2] + 0.397175110432459 x[1,3]
   - 0.060806020614059 x[6,1] - 0.3238806784097726 x[6,2]
   - 0.397175110432459 x[6,3] >= 0
 findWorstP[1,7]: z + 0.2181381905437095 cashProportion[1]
   - 0.2181381905437095 cashProportion[7] + 0.060806020614059 x[1,1]
   + 0.3238806784097726 x[1,2] + 0.397175110432459 x[1,3]
   - 0.060806020614059 x[7,1] - 0.3238806784097726 x[7,2]
   - 0.397175110432459 x[7,3] >= 0
 findWorstP[2,1]: z - 0.2553626149131767 cashProportion[1]
   + 0.2553626149131767 cashProportion[2] - 0.1917773237997957 x[1,1]
   - 0.1758810010214505 x[1,2] - 0.3769790602655771 x[1,3]
   + 0.1917773237997957 x[2,1] + 0.1758810010214505 x[2,2]
   + 0.3769790602655771 x[2,3] >= 0
 findWorstP[2,3]: z + 0.2553626149131767 cashProportion[2]
   - 0.2553626149131767 cashProportion[3] + 0.1917773237997957 x[2,1]
   + 0.1758810010214505 x[2,2] + 0.3769790602655771 x[2,3]
   - 0.1917773237997957 x[3,1] - 0.1758810010214505 x[3,2]
   - 0.3769790602655771 x[3,3] >= 0
 findWorstP[2,4]: z + 0.2553626149131767 cashProportion[2]
   - 0.2553626149131767 cashProportion[4] + 0.1917773237997957 x[2,1]
   + 0.1758810010214505 x[2,2] + 0.3769790602655771 x[2,3]
   - 0.1917773237997957 x[4,1] - 0.1758810010214505 x[4,2]
   - 0.3769790602655771 x[4,3] >= 0
 findWorstP[2,5]: z + 0.2553626149131767 cashProportion[2]
   - 0.2553626149131767 cashProportion[5] + 0.1917773237997957 x[2,1]
   + 0.1758810010214505 x[2,2] + 0.3769790602655771 x[2,3]
   - 0.1917773237997957 x[5,1] - 0.1758810010214505 x[5,2]
   - 0.3769790602655771 x[5,3] >= 0
 findWorstP[2,6]: z + 0.2553626149131767 cashProportion[2]
   - 0.2553626149131767 cashProportion[6] + 0.1917773237997957 x[2,1]
   + 0.1758810010214505 x[2,2] + 0.3769790602655771 x[2,3]
   - 0.1917773237997957 x[6,1] - 0.1758810010214505 x[6,2]
   - 0.3769790602655771 x[6,3] >= 0
 findWorstP[2,7]: z + 0.2553626149131767 cashProportion[2]
   - 0.2553626149131767 cashProportion[7] + 0.1917773237997957 x[2,1]
   + 0.1758810010214505 x[2,2] + 0.3769790602655771 x[2,3]
   - 0.1917773237997957 x[7,1] - 0.1758810010214505 x[7,2]
   - 0.3769790602655771 x[7,3] >= 0
 findWorstP[3,1]: z - 0.2057295684822301 cashProportion[1]
   + 0.2057295684822301 cashProportion[3] - 0.471223576608548 x[1,1]
   - 0.192254281746644 x[1,2] - 0.1307925731625778 x[1,3]
   + 0.471223576608548 x[3,1] + 0.192254281746644 x[3,2]
   + 0.1307925731625778 x[3,3] >= 0
 findWorstP[3,2]: z - 0.2057295684822301 cashProportion[2]
   + 0.2057295684822301 cashProportion[3] - 0.471223576608548 x[2,1]
   - 0.192254281746644 x[2,2] - 0.1307925731625778 x[2,3]
   + 0.471223576608548 x[3,1] + 0.192254281746644 x[3,2]
   + 0.1307925731625778 x[3,3] >= 0
 findWorstP[3,4]: z + 0.2057295684822301 cashProportion[3]
   - 0.2057295684822301 cashProportion[4] + 0.471223576608548 x[3,1]
   + 0.192254281746644 x[3,2] + 0.1307925731625778 x[3,3]
   - 0.471223576608548 x[4,1] - 0.192254281746644 x[4,2]
   - 0.1307925731625778 x[4,3] >= 0
 findWorstP[3,5]: z + 0.2057295684822301 cashProportion[3]
   - 0.2057295684822301 cashProportion[5] + 0.471223576608548 x[3,1]
   + 0.192254281746644 x[3,2] + 0.1307925731625778 x[3,3]
   - 0.471223576608548 x[5,1] - 0.192254281746644 x[5,2]
   - 0.1307925731625778 x[5,3] >= 0
 findWorstP[3,6]: z + 0.2057295684822301 cashProportion[3]
   - 0.2057295684822301 cashProportion[6] + 0.471223576608548 x[3,1]
   + 0.192254281746644 x[3,2] + 0.1307925731625778 x[3,3]
   - 0.471223576608548 x[6,1] - 0.192254281746644 x[6,2]
   - 0.1307925731625778 x[6,3] >= 0
 findWorstP[3,7]: z + 0.2057295684822301 cashProportion[3]
   - 0.2057295684822301 cashProportion[7] + 0.471223576608548 x[3,1]
   + 0.192254281746644 x[3,2] + 0.1307925731625778 x[3,3]
   - 0.471223576608548 x[7,1] - 0.192254281746644 x[7,2]
   - 0.1307925731625778 x[7,3] >= 0
 findWorstP[4,1]: z - 0.3208213025344884 cashProportion[1]
   + 0.3208213025344884 cashProportion[4] - 0.2078922040423484 x[1,1]
   - 0.1904074430542188 x[1,2] - 0.2808790503689446 x[1,3]
   + 0.2078922040423484 x[4,1] + 0.1904074430542188 x[4,2]
   + 0.2808790503689446 x[4,3] >= 0
 findWorstP[4,2]: z - 0.3208213025344884 cashProportion[2]
   + 0.3208213025344884 cashProportion[4] - 0.2078922040423484 x[2,1]
   - 0.1904074430542188 x[2,2] - 0.2808790503689446 x[2,3]
   + 0.2078922040423484 x[4,1] + 0.1904074430542188 x[4,2]
   + 0.2808790503689446 x[4,3] >= 0
 findWorstP[4,3]: z - 0.3208213025344884 cashProportion[3]
   + 0.3208213025344884 cashProportion[4] - 0.2078922040423484 x[3,1]
   - 0.1904074430542188 x[3,2] - 0.2808790503689446 x[3,3]
   + 0.2078922040423484 x[4,1] + 0.1904074430542188 x[4,2]
   + 0.2808790503689446 x[4,3] >= 0
 findWorstP[4,5]: z + 0.3208213025344884 cashProportion[4]
   - 0.3208213025344884 cashProportion[5] + 0.2078922040423484 x[4,1]
   + 0.1904074430542188 x[4,2] + 0.2808790503689446 x[4,3]
   - 0.2078922040423484 x[5,1] - 0.1904074430542188 x[5,2]
   - 0.2808790503689446 x[5,3] >= 0
 findWorstP[4,6]: z + 0.3208213025344884 cashProportion[4]
   - 0.3208213025344884 cashProportion[6] + 0.2078922040423484 x[4,1]
   + 0.1904074430542188 x[4,2] + 0.2808790503689446 x[4,3]
   - 0.2078922040423484 x[6,1] - 0.1904074430542188 x[6,2]
   - 0.2808790503689446 x[6,3] >= 0
 findWorstP[4,7]: z + 0.3208213025344884 cashProportion[4]
   - 0.3208213025344884 cashProportion[7] + 0.2078922040423484 x[4,1]
   + 0.1904074430542188 x[4,2] + 0.2808790503689446 x[4,3]
   - 0.2078922040423484 x[7,1] - 0.1904074430542188 x[7,2]
   - 0.2808790503689446 x[7,3] >= 0
 findWorstP[5,1]: z - 0.2827054915541735 cashProportion[1]
   + 0.2827054915541735 cashProportion[5] - 0.014700685560817 x[1,1]
   - 0.0159021838999223 x[1,2] - 0.6866916389850874 x[1,3]
   + 0.014700685560817 x[5,1] + 0.0159021838999223 x[5,2]
   + 0.6866916389850874 x[5,3] >= 0
 findWorstP[5,2]: z - 0.2827054915541735 cashProportion[2]
   + 0.2827054915541735 cashProportion[5] - 0.014700685560817 x[2,1]
   - 0.0159021838999223 x[2,2] - 0.6866916389850874 x[2,3]
   + 0.014700685560817 x[5,1] + 0.0159021838999223 x[5,2]
   + 0.6866916389850874 x[5,3] >= 0
 findWorstP[5,3]: z - 0.2827054915541735 cashProportion[3]
   + 0.2827054915541735 cashProportion[5] - 0.014700685560817 x[3,1]
   - 0.0159021838999223 x[3,2] - 0.6866916389850874 x[3,3]
   + 0.014700685560817 x[5,1] + 0.0159021838999223 x[5,2]
   + 0.6866916389850874 x[5,3] >= 0
 findWorstP[5,4]: z - 0.2827054915541735 cashProportion[4]
   + 0.2827054915541735 cashProportion[5] - 0.014700685560817 x[4,1]
   - 0.0159021838999223 x[4,2] - 0.6866916389850874 x[4,3]
   + 0.014700685560817 x[5,1] + 0.0159021838999223 x[5,2]
   + 0.6866916389850874 x[5,3] >= 0
 findWorstP[5,6]: z + 0.2827054915541735 cashProportion[5]
   - 0.2827054915541735 cashProportion[6] + 0.014700685560817 x[5,1]
   + 0.0159021838999223 x[5,2] + 0.6866916389850874 x[5,3]
   - 0.014700685560817 x[6,1] - 0.0159021838999223 x[6,2]
   - 0.6866916389850874 x[6,3] >= 0
 findWorstP[5,7]: z + 0.2827054915541735 cashProportion[5]
   - 0.2827054915541735 cashProportion[7] + 0.014700685560817 x[5,1]
   + 0.0159021838999223 x[5,2] + 0.6866916389850874 x[5,3]
   - 0.014700685560817 x[7,1] - 0.0159021838999223 x[7,2]
   - 0.6866916389850874 x[7,3] >= 0
 findWorstP[6,1]: z - 0.1888930865130336 cashProportion[1]
   + 0.1888930865130336 cashProportion[6] - 0.1675009444654326 x[1,1]
   - 0.3239516433698527 x[1,2] - 0.3196543256516811 x[1,3]
   + 0.1675009444654326 x[6,1] + 0.3239516433698527 x[6,2]
   + 0.3196543256516811 x[6,3] >= 0
 findWorstP[6,2]: z - 0.1888930865130336 cashProportion[2]
   + 0.1888930865130336 cashProportion[6] - 0.1675009444654326 x[2,1]
   - 0.3239516433698527 x[2,2] - 0.3196543256516811 x[2,3]
   + 0.1675009444654326 x[6,1] + 0.3239516433698527 x[6,2]
   + 0.3196543256516811 x[6,3] >= 0
 findWorstP[6,3]: z - 0.1888930865130336 cashProportion[3]
   + 0.1888930865130336 cashProportion[6] - 0.1675009444654326 x[3,1]
   - 0.3239516433698527 x[3,2] - 0.3196543256516811 x[3,3]
   + 0.1675009444654326 x[6,1] + 0.3239516433698527 x[6,2]
   + 0.3196543256516811 x[6,3] >= 0
 findWorstP[6,4]: z - 0.1888930865130336 cashProportion[4]
   + 0.1888930865130336 cashProportion[6] - 0.1675009444654326 x[4,1]
   - 0.3239516433698527 x[4,2] - 0.3196543256516811 x[4,3]
   + 0.1675009444654326 x[6,1] + 0.3239516433698527 x[6,2]
   + 0.3196543256516811 x[6,3] >= 0
 findWorstP[6,5]: z - 0.1888930865130336 cashProportion[5]
   + 0.1888930865130336 cashProportion[6] - 0.1675009444654326 x[5,1]
   - 0.3239516433698527 x[5,2] - 0.3196543256516811 x[5,3]
   + 0.1675009444654326 x[6,1] + 0.3239516433698527 x[6,2]
   + 0.3196543256516811 x[6,3] >= 0
 findWorstP[6,7]: z + 0.1888930865130336 cashProportion[6]
   - 0.1888930865130336 cashProportion[7] + 0.1675009444654326 x[6,1]
   + 0.3239516433698527 x[6,2] + 0.3196543256516811 x[6,3]
   - 0.1675009444654326 x[7,1] - 0.3239516433698527 x[7,2]
   - 0.3196543256516811 x[7,3] >= 0
 findWorstP[7,1]: z - 0.1885458402074004 cashProportion[1]
   + 0.1885458402074004 cashProportion[7] - 0.2193259486212585 x[1,1]
   - 0.1223662502946029 x[1,2] - 0.4697619608767382 x[1,3]
   + 0.2193259486212585 x[7,1] + 0.1223662502946029 x[7,2]
   + 0.4697619608767382 x[7,3] >= 0
 findWorstP[7,2]: z - 0.1885458402074004 cashProportion[2]
   + 0.1885458402074004 cashProportion[7] - 0.2193259486212585 x[2,1]
   - 0.1223662502946029 x[2,2] - 0.4697619608767382 x[2,3]
   + 0.2193259486212585 x[7,1] + 0.1223662502946029 x[7,2]
   + 0.4697619608767382 x[7,3] >= 0
 findWorstP[7,3]: z - 0.1885458402074004 cashProportion[3]
   + 0.1885458402074004 cashProportion[7] - 0.2193259486212585 x[3,1]
   - 0.1223662502946029 x[3,2] - 0.4697619608767382 x[3,3]
   + 0.2193259486212585 x[7,1] + 0.1223662502946029 x[7,2]
   + 0.4697619608767382 x[7,3] >= 0
 findWorstP[7,4]: z - 0.1885458402074004 cashProportion[4]
   + 0.1885458402074004 cashProportion[7] - 0.2193259486212585 x[4,1]
   - 0.1223662502946029 x[4,2] - 0.4697619608767382 x[4,3]
   + 0.2193259486212585 x[7,1] + 0.1223662502946029 x[7,2]
   + 0.4697619608767382 x[7,3] >= 0
 findWorstP[7,5]: z - 0.1885458402074004 cashProportion[5]
   + 0.1885458402074004 cashProportion[7] - 0.2193259486212585 x[5,1]
   - 0.1223662502946029 x[5,2] - 0.4697619608767382 x[5,3]
   + 0.2193259486212585 x[7,1] + 0.1223662502946029 x[7,2]
   + 0.4697619608767382 x[7,3] >= 0
 findWorstP[7,6]: z - 0.1885458402074004 cashProportion[6]
   + 0.1885458402074004 cashProportion[7] - 0.2193259486212585 x[6,1]
   - 0.1223662502946029 x[6,2] - 0.4697619608767382 x[6,3]
   + 0.2193259486212585 x[7,1] + 0.1223662502946029 x[7,2]
   + 0.4697619608767382 x[7,3] >= 0
Bounds
 z <= 1
 -infinity <= cashProportion[1] <= 1
 -infinity <= cashProportion[2] <= 1
 -infinity <= cashProportion[3] <= 1
 -infinity <= cashProportion[4] <= 1
 -infinity <= cashProportion[5] <= 1
 -infinity <= cashProportion[6] <= 1
 -infinity <= cashProportion[7] <= 1
Binaries
 x[1,1] x[1,2] x[1,3] x[2,1] x[2,2] x[2,3] x[3,1] x[3,2] x[3,3] x[4,1]
 x[4,2] x[4,3] x[5,1] x[5,2] x[5,3] x[6,1] x[6,2] x[6,3] x[7,1] x[7,2]
 x[7,3]
End
