data/mps_files/pEFS/123_6.mps
NAME foo
ROWS
 N  OBJ
 E  allocateEach[1]
 E  allocateEach[2]
 E  allocateEach[3]
 E  allocateAllCash
 G  findWorstP[1,2]
 G  findWorstP[1,3]
 G  findWorstP[1,4]
 G  findWorstP[1,5]
 G  findWorstP[1,6]
 G  findWorstP[1,7]
 G  findWorstP[2,1]
 G  findWorstP[2,3]
 G  findWorstP[2,4]
 G  findWorstP[2,5]
 G  findWorstP[2,6]
 G  findWorstP[2,7]
 G  findWorstP[3,1]
 G  findWorstP[3,2]
 G  findWorstP[3,4]
 G  findWorstP[3,5]
 G  findWorstP[3,6]
 G  findWorstP[3,7]
 G  findWorstP[4,1]
 G  findWorstP[4,2]
 G  findWorstP[4,3]
 G  findWorstP[4,5]
 G  findWorstP[4,6]
 G  findWorstP[4,7]
 G  findWorstP[5,1]
 G  findWorstP[5,2]
 G  findWorstP[5,3]
 G  findWorstP[5,4]
 G  findWorstP[5,6]
 G  findWorstP[5,7]
 G  findWorstP[6,1]
 G  findWorstP[6,2]
 G  findWorstP[6,3]
 G  findWorstP[6,4]
 G  findWorstP[6,5]
 G  findWorstP[6,7]
 G  findWorstP[7,1]
 G  findWorstP[7,2]
 G  findWorstP[7,3]
 G  findWorstP[7,4]
 G  findWorstP[7,5]
 G  findWorstP[7,6]
COLUMNS
    z         OBJ       1
    z         findWorstP[1,2]  1
    z         findWorstP[1,3]  1
    z         findWorstP[1,4]  1
    z         findWorstP[1,5]  1
    z         findWorstP[1,6]  1
    z         findWorstP[1,7]  1
    z         findWorstP[2,1]  1
    z         findWorstP[2,3]  1
    z         findWorstP[2,4]  1
    z         findWorstP[2,5]  1
    z         findWorstP[2,6]  1
    z         findWorstP[2,7]  1
    z         findWorstP[3,1]  1
    z         findWorstP[3,2]  1
    z         findWorstP[3,4]  1
    z         findWorstP[3,5]  1
    z         findWorstP[3,6]  1
    z         findWorstP[3,7]  1
    z         findWorstP[4,1]  1
    z         findWorstP[4,2]  1
    z         findWorstP[4,3]  1
    z         findWorstP[4,5]  1
    z         findWorstP[4,6]  1
    z         findWorstP[4,7]  1
    z         findWorstP[5,1]  1
    z         findWorstP[5,2]  1
    z         findWorstP[5,3]  1
    z         findWorstP[5,4]  1
    z         findWorstP[5,6]  1
    z         findWorstP[5,7]  1
    z         findWorstP[6,1]  1
    z         findWorstP[6,2]  1
    z         findWorstP[6,3]  1
    z         findWorstP[6,4]  1
    z         findWorstP[6,5]  1
    z         findWorstP[6,7]  1
    z         findWorstP[7,1]  1
    z         findWorstP[7,2]  1
    z         findWorstP[7,3]  1
    z         findWorstP[7,4]  1
    z         findWorstP[7,5]  1
    z         findWorstP[7,6]  1
    cashProportion[1]  allocateAllCash  1
    cashProportion[1]  findWorstP[1,2]  2.1813819054370948e-01
    cashProportion[1]  findWorstP[1,3]  2.1813819054370948e-01
    cashProportion[1]  findWorstP[1,4]  2.1813819054370948e-01
    cashProportion[1]  findWorstP[1,5]  2.1813819054370948e-01
    cashProportion[1]  findWorstP[1,6]  2.1813819054370948e-01
    cashProportion[1]  findWorstP[1,7]  2.1813819054370948e-01
    cashProportion[1]  findWorstP[2,1]  -2.5536261491317669e-01
    cashProportion[1]  findWorstP[3,1]  -2.0572956848223012e-01
    cashProportion[1]  findWorstP[4,1]  -3.2082130253448837e-01
    cashProportion[1]  findWorstP[5,1]  -2.8270549155417352e-01
    cashProportion[1]  findWorstP[6,1]  -1.8889308651303363e-01
    cashProportion[1]  findWorstP[7,1]  -1.8854584020740042e-01
    cashProportion[2]  allocateAllCash  1
    cashProportion[2]  findWorstP[1,2]  -2.1813819054370948e-01
    cashProportion[2]  findWorstP[2,1]  2.5536261491317669e-01
    cashProportion[2]  findWorstP[2,3]  2.5536261491317669e-01
    cashProportion[2]  findWorstP[2,4]  2.5536261491317669e-01
    cashProportion[2]  findWorstP[2,5]  2.5536261491317669e-01
    cashProportion[2]  findWorstP[2,6]  2.5536261491317669e-01
    cashProportion[2]  findWorstP[2,7]  2.5536261491317669e-01
    cashProportion[2]  findWorstP[3,2]  -2.0572956848223012e-01
    cashProportion[2]  findWorstP[4,2]  -3.2082130253448837e-01
    cashProportion[2]  findWorstP[5,2]  -2.8270549155417352e-01
    cashProportion[2]  findWorstP[6,2]  -1.8889308651303363e-01
    cashProportion[2]  findWorstP[7,2]  -1.8854584020740042e-01
    cashProportion[3]  allocateAllCash  1
    cashProportion[3]  findWorstP[1,3]  -2.1813819054370948e-01
    cashProportion[3]  findWorstP[2,3]  -2.5536261491317669e-01
    cashProportion[3]  findWorstP[3,1]  2.0572956848223012e-01
    cashProportion[3]  findWorstP[3,2]  2.0572956848223012e-01
    cashProportion[3]  findWorstP[3,4]  2.0572956848223012e-01
    cashProportion[3]  findWorstP[3,5]  2.0572956848223012e-01
    cashProportion[3]  findWorstP[3,6]  2.0572956848223012e-01
    cashProportion[3]  findWorstP[3,7]  2.0572956848223012e-01
    cashProportion[3]  findWorstP[4,3]  -3.2082130253448837e-01
    cashProportion[3]  findWorstP[5,3]  -2.8270549155417352e-01
    cashProportion[3]  findWorstP[6,3]  -1.8889308651303363e-01
    cashProportion[3]  findWorstP[7,3]  -1.8854584020740042e-01
    cashProportion[4]  allocateAllCash  1
    cashProportion[4]  findWorstP[1,4]  -2.1813819054370948e-01
    cashProportion[4]  findWorstP[2,4]  -2.5536261491317669e-01
    cashProportion[4]  findWorstP[3,4]  -2.0572956848223012e-01
    cashProportion[4]  findWorstP[4,1]  3.2082130253448837e-01
    cashProportion[4]  findWorstP[4,2]  3.2082130253448837e-01
    cashProportion[4]  findWorstP[4,3]  3.2082130253448837e-01
    cashProportion[4]  findWorstP[4,5]  3.2082130253448837e-01
    cashProportion[4]  findWorstP[4,6]  3.2082130253448837e-01
    cashProportion[4]  findWorstP[4,7]  3.2082130253448837e-01
    cashProportion[4]  findWorstP[5,4]  -2.8270549155417352e-01
    cashProportion[4]  findWorstP[6,4]  -1.8889308651303363e-01
    cashProportion[4]  findWorstP[7,4]  -1.8854584020740042e-01
    cashProportion[5]  allocateAllCash  1
    cashProportion[5]  findWorstP[1,5]  -2.1813819054370948e-01
    cashProportion[5]  findWorstP[2,5]  -2.5536261491317669e-01
    cashProportion[5]  findWorstP[3,5]  -2.0572956848223012e-01
    cashProportion[5]  findWorstP[4,5]  -3.2082130253448837e-01
    cashProportion[5]  findWorstP[5,1]  2.8270549155417352e-01
    cashProportion[5]  findWorstP[5,2]  2.8270549155417352e-01
    cashProportion[5]  findWorstP[5,3]  2.8270549155417352e-01
    cashProportion[5]  findWorstP[5,4]  2.8270549155417352e-01
    cashProportion[5]  findWorstP[5,6]  2.8270549155417352e-01
    cashProportion[5]  findWorstP[5,7]  2.8270549155417352e-01
    cashProportion[5]  findWorstP[6,5]  -1.8889308651303363e-01
    cashProportion[5]  findWorstP[7,5]  -1.8854584020740042e-01
    cashProportion[6]  allocateAllCash  1
    cashProportion[6]  findWorstP[1,6]  -2.1813819054370948e-01
    cashProportion[6]  findWorstP[2,6]  -2.5536261491317669e-01
    cashProportion[6]  findWorstP[3,6]  -2.0572956848223012e-01
    cashProportion[6]  findWorstP[4,6]  -3.2082130253448837e-01
    cashProportion[6]  findWorstP[5,6]  -2.8270549155417352e-01
    cashProportion[6]  findWorstP[6,1]  1.8889308651303363e-01
    cashProportion[6]  findWorstP[6,2]  1.8889308651303363e-01
    cashProportion[6]  findWorstP[6,3]  1.8889308651303363e-01
    cashProportion[6]  findWorstP[6,4]  1.8889308651303363e-01
    cashProportion[6]  findWorstP[6,5]  1.8889308651303363e-01
    cashProportion[6]  findWorstP[6,7]  1.8889308651303363e-01
    cashProportion[6]  findWorstP[7,6]  -1.8854584020740042e-01
    cashProportion[7]  allocateAllCash  1
    cashProportion[7]  findWorstP[1,7]  -2.1813819054370948e-01
    cashProportion[7]  findWorstP[2,7]  -2.5536261491317669e-01
    cashProportion[7]  findWorstP[3,7]  -2.0572956848223012e-01
    cashProportion[7]  findWorstP[4,7]  -3.2082130253448837e-01
    cashProportion[7]  findWorstP[5,7]  -2.8270549155417352e-01
    cashProportion[7]  findWorstP[6,7]  -1.8889308651303363e-01
    cashProportion[7]  findWorstP[7,1]  1.8854584020740042e-01
    cashProportion[7]  findWorstP[7,2]  1.8854584020740042e-01
    cashProportion[7]  findWorstP[7,3]  1.8854584020740042e-01
    cashProportion[7]  findWorstP[7,4]  1.8854584020740042e-01
    cashProportion[7]  findWorstP[7,5]  1.8854584020740042e-01
    cashProportion[7]  findWorstP[7,6]  1.8854584020740042e-01
    MARKER    'MARKER'                 'INTORG'
    x[1,1]    allocateEach[1]  1
    x[1,1]    findWorstP[1,2]  6.0806020614059014e-02
    x[1,1]    findWorstP[1,3]  6.0806020614059014e-02
    x[1,1]    findWorstP[1,4]  6.0806020614059014e-02
    x[1,1]    findWorstP[1,5]  6.0806020614059014e-02
    x[1,1]    findWorstP[1,6]  6.0806020614059014e-02
    x[1,1]    findWorstP[1,7]  6.0806020614059014e-02
    x[1,1]    findWorstP[2,1]  -1.9177732379979570e-01
    x[1,1]    findWorstP[3,1]  -0.471223576608548
    x[1,1]    findWorstP[4,1]  -2.0789220404234843e-01
    x[1,1]    findWorstP[5,1]  -1.4700685560817021e-02
    x[1,1]    findWorstP[6,1]  -1.6750094446543257e-01
    x[1,1]    findWorstP[7,1]  -2.1932594862125854e-01
    x[1,2]    allocateEach[2]  1
    x[1,2]    findWorstP[1,2]  3.2388067840977264e-01
    x[1,2]    findWorstP[1,3]  3.2388067840977264e-01
    x[1,2]    findWorstP[1,4]  3.2388067840977264e-01
    x[1,2]    findWorstP[1,5]  3.2388067840977264e-01
    x[1,2]    findWorstP[1,6]  3.2388067840977264e-01
    x[1,2]    findWorstP[1,7]  3.2388067840977264e-01
    x[1,2]    findWorstP[2,1]  -1.7588100102145046e-01
    x[1,2]    findWorstP[3,1]  -1.9225428174664402e-01
    x[1,2]    findWorstP[4,1]  -1.9040744305421883e-01
    x[1,2]    findWorstP[5,1]  -1.5902183899922259e-02
    x[1,2]    findWorstP[6,1]  -3.2395164336985272e-01
    x[1,2]    findWorstP[7,1]  -1.2236625029460287e-01
    x[1,3]    allocateEach[3]  1
    x[1,3]    findWorstP[1,2]  3.9717511043245896e-01
    x[1,3]    findWorstP[1,3]  3.9717511043245896e-01
    x[1,3]    findWorstP[1,4]  3.9717511043245896e-01
    x[1,3]    findWorstP[1,5]  3.9717511043245896e-01
    x[1,3]    findWorstP[1,6]  3.9717511043245896e-01
    x[1,3]    findWorstP[1,7]  3.9717511043245896e-01
    x[1,3]    findWorstP[2,1]  -3.7697906026557709e-01
    x[1,3]    findWorstP[3,1]  -1.3079257316257781e-01
    x[1,3]    findWorstP[4,1]  -2.8087905036894456e-01
    x[1,3]    findWorstP[5,1]  -6.8669163898508745e-01
    x[1,3]    findWorstP[6,1]  -3.1965432565168111e-01
    x[1,3]    findWorstP[7,1]  -4.6976196087673816e-01
    x[2,1]    allocateEach[1]  1
    x[2,1]    findWorstP[1,2]  -6.0806020614059014e-02
    x[2,1]    findWorstP[2,1]  1.9177732379979570e-01
    x[2,1]    findWorstP[2,3]  1.9177732379979570e-01
    x[2,1]    findWorstP[2,4]  1.9177732379979570e-01
    x[2,1]    findWorstP[2,5]  1.9177732379979570e-01
    x[2,1]    findWorstP[2,6]  1.9177732379979570e-01
    x[2,1]    findWorstP[2,7]  1.9177732379979570e-01
    x[2,1]    findWorstP[3,2]  -0.471223576608548
    x[2,1]    findWorstP[4,2]  -2.0789220404234843e-01
    x[2,1]    findWorstP[5,2]  -1.4700685560817021e-02
    x[2,1]    findWorstP[6,2]  -1.6750094446543257e-01
    x[2,1]    findWorstP[7,2]  -2.1932594862125854e-01
    x[2,2]    allocateEach[2]  1
    x[2,2]    findWorstP[1,2]  -3.2388067840977264e-01
    x[2,2]    findWorstP[2,1]  1.7588100102145046e-01
    x[2,2]    findWorstP[2,3]  1.7588100102145046e-01
    x[2,2]    findWorstP[2,4]  1.7588100102145046e-01
    x[2,2]    findWorstP[2,5]  1.7588100102145046e-01
    x[2,2]    findWorstP[2,6]  1.7588100102145046e-01
    x[2,2]    findWorstP[2,7]  1.7588100102145046e-01
    x[2,2]    findWorstP[3,2]  -1.9225428174664402e-01
    x[2,2]    findWorstP[4,2]  -1.9040744305421883e-01
    x[2,2]    findWorstP[5,2]  -1.5902183899922259e-02
    x[2,2]    findWorstP[6,2]  -3.2395164336985272e-01
    x[2,2]    findWorstP[7,2]  -1.2236625029460287e-01
    x[2,3]    allocateEach[3]  1
    x[2,3]    findWorstP[1,2]  -3.9717511043245896e-01
    x[2,3]    findWorstP[2,1]  3.7697906026557709e-01
    x[2,3]    findWorstP[2,3]  3.7697906026557709e-01
    x[2,3]    findWorstP[2,4]  3.7697906026557709e-01
    x[2,3]    findWorstP[2,5]  3.7697906026557709e-01
    x[2,3]    findWorstP[2,6]  3.7697906026557709e-01
    x[2,3]    findWorstP[2,7]  3.7697906026557709e-01
    x[2,3]    findWorstP[3,2]  -1.3079257316257781e-01
    x[2,3]    findWorstP[4,2]  -2.8087905036894456e-01
    x[2,3]    findWorstP[5,2]  -6.8669163898508745e-01
    x[2,3]    findWorstP[6,2]  -3.1965432565168111e-01
    x[2,3]    findWorstP[7,2]  -4.6976196087673816e-01
    x[3,1]    allocateEach[1]  1
    x[3,1]    findWorstP[1,3]  -6.0806020614059014e-02
    x[3,1]    findWorstP[2,3]  -1.9177732379979570e-01
    x[3,1]    findWorstP[3,1]  0.471223576608548
    x[3,1]    findWorstP[3,2]  0.471223576608548
    x[3,1]    findWorstP[3,4]  0.471223576608548
    x[3,1]    findWorstP[3,5]  0.471223576608548
    x[3,1]    findWorstP[3,6]  0.471223576608548
    x[3,1]    findWorstP[3,7]  0.471223576608548
    x[3,1]    findWorstP[4,3]  -2.0789220404234843e-01
    x[3,1]    findWorstP[5,3]  -1.4700685560817021e-02
    x[3,1]    findWorstP[6,3]  -1.6750094446543257e-01
    x[3,1]    findWorstP[7,3]  -2.1932594862125854e-01
    x[3,2]    allocateEach[2]  1
    x[3,2]    findWorstP[1,3]  -3.2388067840977264e-01
    x[3,2]    findWorstP[2,3]  -1.7588100102145046e-01
    x[3,2]    findWorstP[3,1]  1.9225428174664402e-01
    x[3,2]    findWorstP[3,2]  1.9225428174664402e-01
    x[3,2]    findWorstP[3,4]  1.9225428174664402e-01
    x[3,2]    findWorstP[3,5]  1.9225428174664402e-01
    x[3,2]    findWorstP[3,6]  1.9225428174664402e-01
    x[3,2]    findWorstP[3,7]  1.9225428174664402e-01
    x[3,2]    findWorstP[4,3]  -1.9040744305421883e-01
    x[3,2]    findWorstP[5,3]  -1.5902183899922259e-02
    x[3,2]    findWorstP[6,3]  -3.2395164336985272e-01
    x[3,2]    findWorstP[7,3]  -1.2236625029460287e-01
    x[3,3]    allocateEach[3]  1
    x[3,3]    findWorstP[1,3]  -3.9717511043245896e-01
    x[3,3]    findWorstP[2,3]  -3.7697906026557709e-01
    x[3,3]    findWorstP[3,1]  1.3079257316257781e-01
    x[3,3]    findWorstP[3,2]  1.3079257316257781e-01
    x[3,3]    findWorstP[3,4]  1.3079257316257781e-01
    x[3,3]    findWorstP[3,5]  1.3079257316257781e-01
    x[3,3]    findWorstP[3,6]  1.3079257316257781e-01
    x[3,3]    findWorstP[3,7]  1.3079257316257781e-01
    x[3,3]    findWorstP[4,3]  -2.8087905036894456e-01
    x[3,3]    findWorstP[5,3]  -6.8669163898508745e-01
    x[3,3]    findWorstP[6,3]  -3.1965432565168111e-01
    x[3,3]    findWorstP[7,3]  -4.6976196087673816e-01
    x[4,1]    allocateEach[1]  1
    x[4,1]    findWorstP[1,4]  -6.0806020614059014e-02
    x[4,1]    findWorstP[2,4]  -1.9177732379979570e-01
    x[4,1]    findWorstP[3,4]  -0.471223576608548
    x[4,1]    findWorstP[4,1]  2.0789220404234843e-01
    x[4,1]    findWorstP[4,2]  2.0789220404234843e-01
    x[4,1]    findWorstP[4,3]  2.0789220404234843e-01
    x[4,1]    findWorstP[4,5]  2.0789220404234843e-01
    x[4,1]    findWorstP[4,6]  2.0789220404234843e-01
    x[4,1]    findWorstP[4,7]  2.0789220404234843e-01
    x[4,1]    findWorstP[5,4]  -1.4700685560817021e-02
    x[4,1]    findWorstP[6,4]  -1.6750094446543257e-01
    x[4,1]    findWorstP[7,4]  -2.1932594862125854e-01
    x[4,2]    allocateEach[2]  1
    x[4,2]    findWorstP[1,4]  -3.2388067840977264e-01
    x[4,2]    findWorstP[2,4]  -1.7588100102145046e-01
    x[4,2]    findWorstP[3,4]  -1.9225428174664402e-01
    x[4,2]    findWorstP[4,1]  1.9040744305421883e-01
    x[4,2]    findWorstP[4,2]  1.9040744305421883e-01
    x[4,2]    findWorstP[4,3]  1.9040744305421883e-01
    x[4,2]    findWorstP[4,5]  1.9040744305421883e-01
    x[4,2]    findWorstP[4,6]  1.9040744305421883e-01
    x[4,2]    findWorstP[4,7]  1.9040744305421883e-01
    x[4,2]    findWorstP[5,4]  -1.5902183899922259e-02
    x[4,2]    findWorstP[6,4]  -3.2395164336985272e-01
    x[4,2]    findWorstP[7,4]  -1.2236625029460287e-01
    x[4,3]    allocateEach[3]  1
    x[4,3]    findWorstP[1,4]  -3.9717511043245896e-01
    x[4,3]    findWorstP[2,4]  -3.7697906026557709e-01
    x[4,3]    findWorstP[3,4]  -1.3079257316257781e-01
    x[4,3]    findWorstP[4,1]  2.8087905036894456e-01
    x[4,3]    findWorstP[4,2]  2.8087905036894456e-01
    x[4,3]    findWorstP[4,3]  2.8087905036894456e-01
    x[4,3]    findWorstP[4,5]  2.8087905036894456e-01
    x[4,3]    findWorstP[4,6]  2.8087905036894456e-01
    x[4,3]    findWorstP[4,7]  2.8087905036894456e-01
    x[4,3]    findWorstP[5,4]  -6.8669163898508745e-01
    x[4,3]    findWorstP[6,4]  -3.1965432565168111e-01
    x[4,3]    findWorstP[7,4]  -4.6976196087673816e-01
    x[5,1]    allocateEach[1]  1
    x[5,1]    findWorstP[1,5]  -6.0806020614059014e-02
    x[5,1]    findWorstP[2,5]  -1.9177732379979570e-01
    x[5,1]    findWorstP[3,5]  -0.471223576608548
    x[5,1]    findWorstP[4,5]  -2.0789220404234843e-01
    x[5,1]    findWorstP[5,1]  1.4700685560817021e-02
    x[5,1]    findWorstP[5,2]  1.4700685560817021e-02
    x[5,1]    findWorstP[5,3]  1.4700685560817021e-02
    x[5,1]    findWorstP[5,4]  1.4700685560817021e-02
    x[5,1]    findWorstP[5,6]  1.4700685560817021e-02
    x[5,1]    findWorstP[5,7]  1.4700685560817021e-02
    x[5,1]    findWorstP[6,5]  -1.6750094446543257e-01
    x[5,1]    findWorstP[7,5]  -2.1932594862125854e-01
    x[5,2]    allocateEach[2]  1
    x[5,2]    findWorstP[1,5]  -3.2388067840977264e-01
    x[5,2]    findWorstP[2,5]  -1.7588100102145046e-01
    x[5,2]    findWorstP[3,5]  -1.9225428174664402e-01
    x[5,2]    findWorstP[4,5]  -1.9040744305421883e-01
    x[5,2]    findWorstP[5,1]  1.5902183899922259e-02
    x[5,2]    findWorstP[5,2]  1.5902183899922259e-02
    x[5,2]    findWorstP[5,3]  1.5902183899922259e-02
    x[5,2]    findWorstP[5,4]  1.5902183899922259e-02
    x[5,2]    findWorstP[5,6]  1.5902183899922259e-02
    x[5,2]    findWorstP[5,7]  1.5902183899922259e-02
    x[5,2]    findWorstP[6,5]  -3.2395164336985272e-01
    x[5,2]    findWorstP[7,5]  -1.2236625029460287e-01
    x[5,3]    allocateEach[3]  1
    x[5,3]    findWorstP[1,5]  -3.9717511043245896e-01
    x[5,3]    findWorstP[2,5]  -3.7697906026557709e-01
    x[5,3]    findWorstP[3,5]  -1.3079257316257781e-01
    x[5,3]    findWorstP[4,5]  -2.8087905036894456e-01
    x[5,3]    findWorstP[5,1]  6.8669163898508745e-01
    x[5,3]    findWorstP[5,2]  6.8669163898508745e-01
    x[5,3]    findWorstP[5,3]  6.8669163898508745e-01
    x[5,3]    findWorstP[5,4]  6.8669163898508745e-01
    x[5,3]    findWorstP[5,6]  6.8669163898508745e-01
    x[5,3]    findWorstP[5,7]  6.8669163898508745e-01
    x[5,3]    findWorstP[6,5]  -3.1965432565168111e-01
    x[5,3]    findWorstP[7,5]  -4.6976196087673816e-01
    x[6,1]    allocateEach[1]  1
    x[6,1]    findWorstP[1,6]  -6.0806020614059014e-02
    x[6,1]    findWorstP[2,6]  -1.9177732379979570e-01
    x[6,1]    findWorstP[3,6]  -0.471223576608548
    x[6,1]    findWorstP[4,6]  -2.0789220404234843e-01
    x[6,1]    findWorstP[5,6]  -1.4700685560817021e-02
    x[6,1]    findWorstP[6,1]  1.6750094446543257e-01
    x[6,1]    findWorstP[6,2]  1.6750094446543257e-01
    x[6,1]    findWorstP[6,3]  1.6750094446543257e-01
    x[6,1]    findWorstP[6,4]  1.6750094446543257e-01
    x[6,1]    findWorstP[6,5]  1.6750094446543257e-01
    x[6,1]    findWorstP[6,7]  1.6750094446543257e-01
    x[6,1]    findWorstP[7,6]  -2.1932594862125854e-01
    x[6,2]    allocateEach[2]  1
    x[6,2]    findWorstP[1,6]  -3.2388067840977264e-01
    x[6,2]    findWorstP[2,6]  -1.7588100102145046e-01
    x[6,2]    findWorstP[3,6]  -1.9225428174664402e-01
    x[6,2]    findWorstP[4,6]  -1.9040744305421883e-01
    x[6,2]    findWorstP[5,6]  -1.5902183899922259e-02
    x[6,2]    findWorstP[6,1]  3.2395164336985272e-01
    x[6,2]    findWorstP[6,2]  3.2395164336985272e-01
    x[6,2]    findWorstP[6,3]  3.2395164336985272e-01
    x[6,2]    findWorstP[6,4]  3.2395164336985272e-01
    x[6,2]    findWorstP[6,5]  3.2395164336985272e-01
    x[6,2]    findWorstP[6,7]  3.2395164336985272e-01
    x[6,2]    findWorstP[7,6]  -1.2236625029460287e-01
    x[6,3]    allocateEach[3]  1
    x[6,3]    findWorstP[1,6]  -3.9717511043245896e-01
    x[6,3]    findWorstP[2,6]  -3.7697906026557709e-01
    x[6,3]    findWorstP[3,6]  -1.3079257316257781e-01
    x[6,3]    findWorstP[4,6]  -2.8087905036894456e-01
    x[6,3]    findWorstP[5,6]  -6.8669163898508745e-01
    x[6,3]    findWorstP[6,1]  3.1965432565168111e-01
    x[6,3]    findWorstP[6,2]  3.1965432565168111e-01
    x[6,3]    findWorstP[6,3]  3.1965432565168111e-01
    x[6,3]    findWorstP[6,4]  3.1965432565168111e-01
    x[6,3]    findWorstP[6,5]  3.1965432565168111e-01
    x[6,3]    findWorstP[6,7]  3.1965432565168111e-01
    x[6,3]    findWorstP[7,6]  -4.6976196087673816e-01
    x[7,1]    allocateEach[1]  1
    x[7,1]    findWorstP[1,7]  -6.0806020614059014e-02
    x[7,1]    findWorstP[2,7]  -1.9177732379979570e-01
    x[7,1]    findWorstP[3,7]  -0.471223576608548
    x[7,1]    findWorstP[4,7]  -2.0789220404234843e-01
    x[7,1]    findWorstP[5,7]  -1.4700685560817021e-02
    x[7,1]    findWorstP[6,7]  -1.6750094446543257e-01
    x[7,1]    findWorstP[7,1]  2.1932594862125854e-01
    x[7,1]    findWorstP[7,2]  2.1932594862125854e-01
    x[7,1]    findWorstP[7,3]  2.1932594862125854e-01
    x[7,1]    findWorstP[7,4]  2.1932594862125854e-01
    x[7,1]    findWorstP[7,5]  2.1932594862125854e-01
    x[7,1]    findWorstP[7,6]  2.1932594862125854e-01
    x[7,2]    allocateEach[2]  1
    x[7,2]    findWorstP[1,7]  -3.2388067840977264e-01
    x[7,2]    findWorstP[2,7]  -1.7588100102145046e-01
    x[7,2]    findWorstP[3,7]  -1.9225428174664402e-01
    x[7,2]    findWorstP[4,7]  -1.9040744305421883e-01
    x[7,2]    findWorstP[5,7]  -1.5902183899922259e-02
    x[7,2]    findWorstP[6,7]  -3.2395164336985272e-01
    x[7,2]    findWorstP[7,1]  1.2236625029460287e-01
    x[7,2]    findWorstP[7,2]  1.2236625029460287e-01
    x[7,2]    findWorstP[7,3]  1.2236625029460287e-01
    x[7,2]    findWorstP[7,4]  1.2236625029460287e-01
    x[7,2]    findWorstP[7,5]  1.2236625029460287e-01
    x[7,2]    findWorstP[7,6]  1.2236625029460287e-01
    x[7,3]    allocateEach[3]  1
    x[7,3]    findWorstP[1,7]  -3.9717511043245896e-01
    x[7,3]    findWorstP[2,7]  -3.7697906026557709e-01
    x[7,3]    findWorstP[3,7]  -1.3079257316257781e-01
    x[7,3]    findWorstP[4,7]  -2.8087905036894456e-01
    x[7,3]    findWorstP[5,7]  -6.8669163898508745e-01
    x[7,3]    findWorstP[6,7]  -3.1965432565168111e-01
    x[7,3]    findWorstP[7,1]  4.6976196087673816e-01
    x[7,3]    findWorstP[7,2]  4.6976196087673816e-01
    x[7,3]    findWorstP[7,3]  4.6976196087673816e-01
    x[7,3]    findWorstP[7,4]  4.6976196087673816e-01
    x[7,3]    findWorstP[7,5]  4.6976196087673816e-01
    x[7,3]    findWorstP[7,6]  4.6976196087673816e-01
    MARKER    'MARKER'                 'INTEND'
RHS
    RHS1      allocateEach[1]  1
    RHS1      allocateEach[2]  1
    RHS1      allocateEach[3]  1
    RHS1      allocateAllCash  1
BOUNDS
 UP BND1      z         1
 MI BND1      cashProportion[1]
 UP BND1      cashProportion[1]  1
 MI BND1      cashProportion[2]
 UP BND1      cashProportion[2]  1
 MI BND1      cashProportion[3]
 UP BND1      cashProportion[3]  1
 MI BND1      cashProportion[4]
 UP BND1      cashProportion[4]  1
 MI BND1      cashProportion[5]
 UP BND1      cashProportion[5]  1
 MI BND1      cashProportion[6]
 UP BND1      cashProportion[6]  1
 MI BND1      cashProportion[7]
 UP BND1      cashProportion[7]  1
 BV BND1      x[1,1]  
 BV BND1      x[1,2]  
 BV BND1      x[1,3]  
 BV BND1      x[2,1]  
 BV BND1      x[2,2]  
 BV BND1      x[2,3]  
 BV BND1      x[3,1]  
 BV BND1      x[3,2]  
 BV BND1      x[3,3]  
 BV BND1      x[4,1]  
 BV BND1      x[4,2]  
 BV BND1      x[4,3]  
 BV BND1      x[5,1]  
 BV BND1      x[5,2]  
 BV BND1      x[5,3]  
 BV BND1      x[6,1]  
 BV BND1      x[6,2]  
 BV BND1      x[6,3]  
 BV BND1      x[7,1]  
 BV BND1      x[7,2]  
 BV BND1      x[7,3]  
ENDATA
